50
446,497
479,371
273,242
69,500
75,35
128,197
416,48
126,427
401,3
120,342
456,477
172,382
96,37
123,175
300,114
230,349
171,188
402,395
283,79
265,436
441,63
137,59
362,373
360,248
182,235
270,62
36,478
26,264
251,149
367,217
439,169
61,32
267,101
220,52
6,460
157,100
76,173
368,21
144,372
244,389
77,202
277,201
121,138
299,471
315,150
341,46
205,316
38,158
104,98
412,162
